(set-logic QF_BV)
(declare-fun v!19 () (_ BitVec 32))
(declare-fun t!15 () (_ BitVec 8))
(declare-fun t!14 () (_ BitVec 8))
(declare-fun t!16 () (_ BitVec 8))
(declare-fun t!17 () (_ BitVec 8))
(declare-fun t!11 () (_ BitVec 8))
(declare-fun t!10 () (_ BitVec 8))
(declare-fun t!12 () (_ BitVec 8))
(declare-fun t!13 () (_ BitVec 8))
(declare-fun t!7 () (_ BitVec 8))
(declare-fun t!6 () (_ BitVec 8))
(declare-fun t!8 () (_ BitVec 8))
(declare-fun t!9 () (_ BitVec 8))
(declare-fun t!3 () (_ BitVec 8))
(declare-fun t!2 () (_ BitVec 8))
(declare-fun t!4 () (_ BitVec 8))
(declare-fun t!5 () (_ BitVec 8))
(declare-fun t!1 () (_ BitVec 8))
(declare-fun t!0 () (_ BitVec 8))
(declare-fun t!18 () (_ BitVec 8))
(declare-fun s!18 () (_ BitVec 8))
(declare-fun s!3 () (_ BitVec 8))
(declare-fun s!7 () (_ BitVec 8))
(declare-fun s!11 () (_ BitVec 8))
(declare-fun s!15 () (_ BitVec 8))
(declare-fun rf!18 () (_ BitVec 8))
(declare-fun v!4 () (_ BitVec 32))
(declare-fun rf!3 () (_ BitVec 8))
(declare-fun v!8 () (_ BitVec 32))
(declare-fun v!12 () (_ BitVec 32))
(declare-fun v!16 () (_ BitVec 32))
(declare-fun rf!7 () (_ BitVec 8))
(declare-fun rf!11 () (_ BitVec 8))
(declare-fun rf!15 () (_ BitVec 8))
(assert (and true (bvsle (_ bv3 32) v!19)))
(assert (bvult (_ bv0 8) t!15))
(assert (bvult (_ bv0 8) t!14))
(assert (bvult (_ bv0 8) t!16))
(assert (bvult (_ bv0 8) t!17))
(assert (bvult (_ bv0 8) t!11))
(assert (bvult (_ bv0 8) t!10))
(assert (bvult (_ bv0 8) t!12))
(assert (bvult (_ bv0 8) t!13))
(assert (bvult (_ bv0 8) t!7))
(assert (bvult (_ bv0 8) t!6))
(assert (bvult (_ bv0 8) t!8))
(assert (bvult (_ bv0 8) t!9))
(assert (bvult (_ bv0 8) t!3))
(assert (bvult (_ bv0 8) t!2))
(assert (bvult (_ bv0 8) t!4))
(assert (bvult (_ bv0 8) t!5))
(assert (bvult (_ bv0 8) t!1))
(assert (bvult (_ bv0 8) t!0))
(assert (bvult (_ bv0 8) t!18))
(assert (and (and (and (and (and (and (and (and (and (and (and (and (and (and (and (and (and (and true (bvult t!14 t!15)) (bvult t!15 t!16)) (bvult t!16 t!17)) (bvult t!10 t!11)) (bvult t!11 t!12)) (bvult t!12 t!13)) (bvult t!6 t!7)) (bvult t!7 t!8)) (bvult t!8 t!9)) (bvult t!2 t!3)) (bvult t!3 t!4)) (bvult t!4 t!5)) (bvult t!0 t!1)) (bvult t!1 t!2)) (bvult t!2 t!6)) (bvult t!6 t!10)) (bvult t!10 t!14)) (bvult t!14 t!18)))
(assert (bvult (_ bv0 8) s!18))
(assert (bvult (_ bv0 8) s!3))
(assert (bvult (_ bv0 8) s!7))
(assert (bvult (_ bv0 8) s!11))
(assert (bvult (_ bv0 8) s!15))
(assert (let ((_let_0 (= (_ bv1 8) rf!18))) (let ((_let_1 (and true true))) (let ((_let_2 (bvule t!1 t!18))) (let ((_let_3 (= (_ bv4 8) rf!18))) (let ((_let_4 (bvule t!4 t!18))) (let ((_let_5 (= (_ bv0 8) rf!3))) (let ((_let_6 (bvule t!0 t!3))) (let ((_let_7 (= (_ bv8 8) rf!3))) (let ((_let_8 (bvule t!8 t!3))) (let ((_let_9 (bvadd v!8 (_ bv1 32)))) (let ((_let_10 (= (_ bv12 8) rf!3))) (let ((_let_11 (bvule t!12 t!3))) (let ((_let_12 (bvadd v!12 (_ bv1 32)))) (let ((_let_13 (= (_ bv16 8) rf!3))) (let ((_let_14 (bvule t!16 t!3))) (let ((_let_15 (bvadd v!16 (_ bv1 32)))) (let ((_let_16 (= (_ bv0 8) rf!7))) (let ((_let_17 (bvule t!0 t!7))) (let ((_let_18 (= (_ bv8 8) rf!7))) (let ((_let_19 (bvule t!8 t!7))) (let ((_let_20 (= (_ bv12 8) rf!7))) (let ((_let_21 (bvule t!12 t!7))) (let ((_let_22 (= (_ bv16 8) rf!7))) (let ((_let_23 (bvule t!16 t!7))) (let ((_let_24 (= (_ bv0 8) rf!11))) (let ((_let_25 (bvule t!0 t!11))) (let ((_let_26 (= (_ bv8 8) rf!11))) (let ((_let_27 (bvule t!8 t!11))) (let ((_let_28 (= (_ bv12 8) rf!11))) (let ((_let_29 (bvule t!12 t!11))) (let ((_let_30 (= (_ bv16 8) rf!11))) (let ((_let_31 (bvule t!16 t!11))) (let ((_let_32 (= (_ bv0 8) rf!15))) (let ((_let_33 (bvule t!0 t!15))) (let ((_let_34 (= (_ bv8 8) rf!15))) (let ((_let_35 (bvule t!8 t!15))) (let ((_let_36 (= (_ bv12 8) rf!15))) (let ((_let_37 (bvule t!12 t!15))) (let ((_let_38 (= (_ bv16 8) rf!15))) (let ((_let_39 (bvule t!16 t!15))) (and (and (and (and (and (and (and (and (and (and (and (and (and (and (and (and (and (and (and (and (and (and (and (and (and (and (and (and (and (and (and (and (and (and (and (and (and (and (and (and (and true (=> _let_0 (and (and (and _let_1 _let_2) (= (_ bv0 32) v!19)) (= s!18 t!1)))) (=> (and _let_2 true) (bvule t!1 s!18))) (=> _let_3 (and (and (and _let_1 _let_4) (= v!4 v!19)) (= s!18 t!4)))) (=> (and _let_4 true) (bvule t!4 s!18))) (=> true (or _let_3 (or _let_0 false)))) (=> _let_5 (and (and (and _let_1 _let_6) (= (_ bv0 32) v!4)) (= s!3 t!0)))) (=> (and _let_6 true) (bvule t!0 s!3))) (=> _let_7 (and (and (and _let_1 _let_8) (= _let_9 v!4)) (= s!3 t!8)))) (=> (and _let_8 true) (bvule t!8 s!3))) (=> _let_10 (and (and (and _let_1 _let_11) (= _let_12 v!4)) (= s!3 t!12)))) (=> (and _let_11 true) (bvule t!12 s!3))) (=> _let_13 (and (and (and _let_1 _let_14) (= _let_15 v!4)) (= s!3 t!16)))) (=> (and _let_14 true) (bvule t!16 s!3))) (=> true (or _let_13 (or _let_10 (or _let_7 (or _let_5 false)))))) (=> _let_16 (and (and (and _let_1 _let_17) (= (_ bv0 32) v!8)) (= s!7 t!0)))) (=> (and _let_17 true) (bvule t!0 s!7))) (=> _let_18 (and (and (and _let_1 _let_19) (= _let_9 v!8)) (= s!7 t!8)))) (=> (and _let_19 true) (bvule t!8 s!7))) (=> _let_20 (and (and (and _let_1 _let_21) (= _let_12 v!8)) (= s!7 t!12)))) (=> (and _let_21 true) (bvule t!12 s!7))) (=> _let_22 (and (and (and _let_1 _let_23) (= _let_15 v!8)) (= s!7 t!16)))) (=> (and _let_23 true) (bvule t!16 s!7))) (=> true (or _let_22 (or _let_20 (or _let_18 (or _let_16 false)))))) (=> _let_24 (and (and (and _let_1 _let_25) (= (_ bv0 32) v!12)) (= s!11 t!0)))) (=> (and _let_25 true) (bvule t!0 s!11))) (=> _let_26 (and (and (and _let_1 _let_27) (= _let_9 v!12)) (= s!11 t!8)))) (=> (and _let_27 true) (bvule t!8 s!11))) (=> _let_28 (and (and (and _let_1 _let_29) (= _let_12 v!12)) (= s!11 t!12)))) (=> (and _let_29 true) (bvule t!12 s!11))) (=> _let_30 (and (and (and _let_1 _let_31) (= _let_15 v!12)) (= s!11 t!16)))) (=> (and _let_31 true) (bvule t!16 s!11))) (=> true (or _let_30 (or _let_28 (or _let_26 (or _let_24 false)))))) (=> _let_32 (and (and (and _let_1 _let_33) (= (_ bv0 32) v!16)) (= s!15 t!0)))) (=> (and _let_33 true) (bvule t!0 s!15))) (=> _let_34 (and (and (and _let_1 _let_35) (= _let_9 v!16)) (= s!15 t!8)))) (=> (and _let_35 true) (bvule t!8 s!15))) (=> _let_36 (and (and (and _let_1 _let_37) (= _let_12 v!16)) (= s!15 t!12)))) (=> (and _let_37 true) (bvule t!12 s!15))) (=> _let_38 (and (and (and _let_1 _let_39) (= _let_15 v!16)) (= s!15 t!16)))) (=> (and _let_39 true) (bvule t!16 s!15))) (=> true (or _let_38 (or _let_36 (or _let_34 (or _let_32 false)))))))))))))))))))))))))))))))))))))))))))))))
(assert (and (and true (distinct t!1 t!4)) (distinct t!0 t!8 t!12 t!16)))
(check-sat)
